20	9	6	14	9	8	14	5	6	12
10	6	6	16	20	6	7	10	19	5
12	12	8	18	3	20	16	17	17	9
1	1	8	4	8	1	2	9	20	5
4	13	6	19	6	18	15	12	7	10
20	14	18	15	20	19	18	5	17	18
5	14	1	5	19	14	5	15	20	1
9	6	5	16	14	20	3	18	8	12
11	19	5	2	19	8	20	11	17	20
6	7	15	13	7	7	12	1	19	3
16	10	10	14	17	4	17	6	16	11
4	15	9	5	10	10	12	14	3	11
8	12	1	12	17	5	15	10	7	18
12	8	16	17	1	20	15	6	1	2
10	11	8	1	1	12	8	10	16	16
11	13	11	8	6	14	6	20	8	1
6	7	6	8	16	13	4	3	16	7
15	4	18	10	6	1	9	6	7	17
18	20	19	2	12	6	3	17	14	8
